************************************************************************
file with basedata            : mm2_.bas
initial value random generator: 365117140
************************************************************************
projects                      :  1
jobs (incl. supersource/sink ):  12
horizon                       :  79
RESOURCES
  - renewable                 :  2   R
  - nonrenewable              :  2   N
  - doubly constrained        :  0   D
************************************************************************
PROJECT INFORMATION:
pronr.  #jobs rel.date duedate tardcost  MPM-Time
    1     10      0       22        2       22
************************************************************************
PRECEDENCE RELATIONS:
jobnr.    #modes  #successors   successors
   0        1          3           1   2   3
   1        3          3           4   6   8
   2        3          3           4   5   8
   3        3          1           9
   4        3          1          10
   5        3          1           7
   6        3          2           7  10
   7        3          1           9
   8        3          1          11
   9        3          1          11
  10        3          1          11
  11        1          0        
************************************************************************
REQUESTS/DURATIONS:
jobnr. mode duration  R 1  R 2  R 3  R 4  E(W 1)  E(W 2)
------------------------------------------------------------------------
  0      1     0       0    0    0    0     0       0
  1      1     9       0    5    0    4    45      36
  2      1     2       0    3    7    0     6      14
  3      1     7       6    0    0    8    42      56
  4      1     6       7    0    9    0    42      54
  5      1     1       5    0    0    2     5       2
  6      1     4      10    0   10    0    40      40
  7      1     4       0    7    0    8    28      32
  8      1     3       4    0    8    0    12      24
  9      1     4       5    0    0    6    20      24
 10      1     7       7    0    0    2    49      14
 11      1     0       0    0    0    0     0       0
************************************************************************
RESOURCEAVAILABILITIES:
  R 1  R 2
   10   68
************************************************************************
RESOURCE LIMITS:
jobnr.  l(R 1)  u(R 1)  l(R 2)  u(R 2)
------------------------------------------------------------------------
  0        0       0       0       0
  1        3       5       2       4
  2        2       3       4       7
  3        3       6       4       8
  4        4       7       5       9
  5        3       5       1       2
  6        5      10       5      10
  7        4       7       4       8
  8        2       4       4       8
  9        3       5       3       6
 10        4       7       1       2
 11        0       0       0       0
************************************************************************
SCENARIOS:
------------------------------------------------------------------------
RESOURCE k = 1
s = 1: (0, 54, 9, 41, 67, 5, 27, 34, 12, 24, 51, 0)
s = 2: (0, 34, 7, 30, 45, 7, 43, 52, 19, 27, 77, 0)
s = 3: (0, 34, 8, 58, 40, 5, 53, 31, 11, 25, 52, 0)
s = 4: (0, 34, 7, 29, 39, 5, 43, 46, 15, 23, 41, 0)
s = 5: (0, 29, 5, 36, 24, 6, 31, 23, 10, 21, 63, 0)
s = 6: (0, 37, 7, 28, 37, 9, 35, 27, 11, 16, 37, 0)
s = 7: (0, 69, 6, 31, 31, 6, 25, 40, 14, 22, 45, 0)
s = 8: (0, 29, 8, 56, 30, 4, 63, 32, 13, 27, 43, 0)
s = 9: (0, 33, 5, 26, 38, 8, 24, 37, 12, 16, 48, 0)
s = 10: (0, 49, 5, 27, 44, 4, 57, 45, 17, 14, 69, 0)
s = 11: (0, 32, 5, 30, 32, 6, 38, 22, 11, 22, 52, 0)
s = 12: (0, 41, 5, 32, 27, 8, 42, 33, 18, 17, 34, 0)
s = 13: (0, 67, 5, 42, 30, 7, 40, 19, 13, 16, 27, 0)
s = 14: (0, 40, 6, 34, 39, 4, 39, 19, 14, 14, 38, 0)
s = 15: (0, 43, 4, 76, 29, 5, 48, 18, 17, 29, 41, 0)
s = 16: (0, 44, 8, 36, 27, 6, 35, 34, 15, 12, 45, 0)
s = 17: (0, 41, 6, 26, 51, 5, 46, 26, 16, 22, 53, 0)
s = 18: (0, 40, 6, 48, 43, 3, 28, 20, 12, 28, 43, 0)
s = 19: (0, 53, 5, 35, 30, 6, 47, 31, 9, 27, 41, 0)
s = 20: (0, 59, 5, 37, 42, 4, 56, 22, 13, 13, 71, 0)
s = 21: (0, 45, 4, 45, 45, 4, 27, 30, 18, 21, 43, 0)
s = 22: (0, 49, 9, 34, 38, 6, 49, 24, 9, 24, 69, 0)
s = 23: (0, 37, 6, 46, 32, 5, 34, 51, 13, 24, 50, 0)
s = 24: (0, 45, 10, 29, 67, 6, 47, 29, 13, 22, 50, 0)
s = 25: (0, 52, 5, 50, 34, 6, 36, 46, 8, 16, 56, 0)
s = 26: (0, 36, 6, 54, 31, 4, 29, 39, 12, 13, 40, 0)
s = 27: (0, 41, 8, 30, 25, 6, 50, 24, 11, 21, 48, 0)
s = 28: (0, 37, 6, 35, 31, 5, 53, 25, 24, 31, 40, 0)
s = 29: (0, 46, 5, 44, 37, 6, 34, 40, 9, 19, 47, 0)
s = 30: (0, 35, 7, 43, 41, 6, 31, 21, 12, 25, 55, 0)
s = 31: (0, 42, 9, 30, 41, 5, 48, 25, 12, 23, 39, 0)
s = 32: (0, 52, 8, 44, 32, 7, 42, 38, 12, 29, 55, 0)
s = 33: (0, 66, 5, 52, 34, 4, 29, 20, 10, 32, 55, 0)
s = 34: (0, 52, 5, 34, 42, 4, 57, 23, 7, 29, 43, 0)
s = 35: (0, 39, 4, 47, 40, 4, 25, 19, 7, 22, 56, 0)
s = 36: (0, 45, 4, 48, 34, 9, 48, 35, 21, 17, 60, 0)
s = 37: (0, 49, 9, 45, 36, 4, 56, 23, 9, 23, 51, 0)
s = 38: (0, 69, 5, 26, 51, 6, 26, 23, 7, 16, 72, 0)
s = 39: (0, 44, 7, 27, 40, 5, 38, 27, 13, 38, 38, 0)
s = 40: (0, 34, 5, 40, 45, 6, 39, 25, 12, 15, 42, 0)
s = 41: (0, 46, 8, 33, 39, 6, 58, 29, 13, 17, 52, 0)
s = 42: (0, 37, 10, 55, 29, 6, 32, 36, 8, 20, 38, 0)
s = 43: (0, 33, 7, 50, 39, 5, 41, 38, 15, 25, 47, 0)
s = 44: (0, 32, 8, 48, 62, 5, 45, 31, 13, 24, 42, 0)
s = 45: (0, 40, 5, 27, 26, 4, 53, 23, 7, 24, 62, 0)
s = 46: (0, 35, 6, 48, 52, 8, 35, 33, 10, 20, 42, 0)
s = 47: (0, 38, 6, 35, 37, 6, 45, 38, 13, 20, 38, 0)
s = 48: (0, 54, 5, 32, 57, 6, 37, 34, 9, 21, 51, 0)
s = 49: (0, 28, 11, 35, 27, 5, 64, 25, 17, 21, 62, 0)
s = 50: (0, 35, 5, 37, 52, 4, 34, 22, 15, 18, 58, 0)
s = 51: (0, 41, 10, 28, 28, 8, 49, 34, 10, 18, 67, 0)
s = 52: (0, 34, 6, 29, 66, 7, 52, 19, 10, 29, 34, 0)
s = 53: (0, 40, 5, 48, 49, 9, 46, 38, 11, 16, 52, 0)
s = 54: (0, 51, 4, 37, 36, 7, 41, 32, 13, 14, 44, 0)
s = 55: (0, 34, 7, 49, 27, 6, 41, 30, 7, 21, 60, 0)
s = 56: (0, 27, 11, 47, 36, 5, 33, 27, 9, 27, 58, 0)
s = 57: (0, 51, 5, 23, 38, 8, 29, 23, 12, 24, 36, 0)
s = 58: (0, 33, 4, 34, 27, 4, 43, 44, 8, 16, 55, 0)
s = 59: (0, 36, 4, 35, 58, 6, 33, 18, 12, 13, 56, 0)
s = 60: (0, 47, 6, 52, 41, 5, 46, 29, 17, 20, 86, 0)
s = 61: (0, 70, 7, 61, 30, 6, 43, 23, 11, 20, 43, 0)
s = 62: (0, 29, 7, 40, 36, 5, 25, 16, 9, 28, 41, 0)
s = 63: (0, 44, 6, 50, 49, 4, 46, 21, 9, 13, 43, 0)
s = 64: (0, 33, 7, 48, 57, 6, 50, 27, 7, 24, 46, 0)
s = 65: (0, 59, 4, 31, 61, 4, 28, 19, 13, 23, 55, 0)
s = 66: (0, 29, 10, 68, 66, 5, 45, 28, 12, 32, 50, 0)
s = 67: (0, 47, 6, 36, 32, 4, 30, 38, 11, 28, 49, 0)
s = 68: (0, 63, 7, 36, 43, 6, 49, 27, 12, 20, 46, 0)
s = 69: (0, 64, 4, 45, 30, 8, 58, 16, 13, 23, 65, 0)
s = 70: (0, 37, 5, 56, 29, 5, 25, 17, 10, 31, 52, 0)
s = 71: (0, 46, 5, 48, 33, 5, 35, 36, 9, 17, 36, 0)
s = 72: (0, 65, 6, 43, 25, 5, 24, 21, 13, 14, 79, 0)
s = 73: (0, 25, 8, 56, 44, 8, 57, 26, 10, 29, 48, 0)
s = 74: (0, 49, 9, 63, 49, 5, 33, 23, 16, 17, 55, 0)
s = 75: (0, 40, 5, 51, 32, 4, 73, 25, 13, 24, 58, 0)
s = 76: (0, 39, 7, 34, 58, 5, 45, 33, 16, 27, 45, 0)
s = 77: (0, 31, 5, 60, 51, 5, 35, 28, 10, 29, 67, 0)
s = 78: (0, 37, 4, 55, 39, 5, 36, 20, 9, 14, 50, 0)
s = 79: (0, 53, 4, 30, 63, 4, 64, 19, 12, 33, 43, 0)
s = 80: (0, 66, 6, 32, 37, 5, 32, 35, 12, 18, 39, 0)
s = 81: (0, 53, 4, 29, 41, 5, 62, 48, 12, 37, 47, 0)
s = 82: (0, 52, 7, 33, 34, 8, 30, 20, 14, 17, 39, 0)
s = 83: (0, 54, 9, 27, 39, 3, 43, 19, 10, 18, 48, 0)
s = 84: (0, 29, 6, 46, 35, 4, 35, 29, 12, 20, 62, 0)
s = 85: (0, 30, 5, 55, 47, 6, 54, 23, 13, 14, 46, 0)
s = 86: (0, 24, 7, 32, 32, 5, 47, 19, 10, 22, 58, 0)
s = 87: (0, 36, 10, 43, 47, 4, 29, 19, 13, 28, 43, 0)
s = 88: (0, 58, 5, 27, 25, 5, 64, 26, 10, 12, 38, 0)
s = 89: (0, 33, 7, 35, 43, 7, 28, 30, 19, 22, 53, 0)
s = 90: (0, 31, 9, 40, 26, 5, 33, 38, 11, 12, 56, 0)
s = 91: (0, 35, 7, 27, 29, 6, 45, 38, 14, 30, 42, 0)
s = 92: (0, 47, 6, 67, 53, 4, 43, 28, 11, 19, 32, 0)
s = 93: (0, 40, 7, 40, 43, 3, 58, 37, 13, 15, 51, 0)
s = 94: (0, 45, 9, 38, 30, 5, 48, 29, 9, 19, 48, 0)
s = 95: (0, 31, 7, 61, 55, 4, 24, 27, 15, 17, 48, 0)
s = 96: (0, 50, 6, 52, 34, 4, 55, 17, 14, 22, 38, 0)
s = 97: (0, 51, 5, 24, 37, 5, 36, 29, 11, 21, 28, 0)
s = 98: (0, 48, 5, 44, 65, 3, 33, 35, 9, 19, 63, 0)
s = 99: (0, 42, 5, 36, 47, 5, 26, 32, 9, 25, 36, 0)
s = 100: (0, 52, 5, 35, 50, 5, 42, 45, 11, 20, 43, 0)
s = 101: (0, 38, 6, 60, 55, 4, 34, 27, 15, 18, 47, 0)
s = 102: (0, 32, 5, 44, 44, 3, 36, 20, 10, 27, 50, 0)
s = 103: (0, 32, 6, 46, 48, 7, 36, 34, 12, 25, 72, 0)
s = 104: (0, 38, 6, 38, 40, 5, 34, 26, 15, 20, 55, 0)
s = 105: (0, 31, 9, 53, 50, 5, 28, 26, 9, 19, 68, 0)
s = 106: (0, 28, 5, 57, 65, 6, 50, 18, 11, 14, 48, 0)
s = 107: (0, 52, 6, 42, 45, 4, 33, 21, 11, 24, 69, 0)
s = 108: (0, 69, 7, 37, 43, 6, 47, 17, 12, 21, 62, 0)
s = 109: (0, 41, 8, 40, 26, 8, 36, 21, 13, 18, 38, 0)
s = 110: (0, 30, 7, 29, 53, 5, 36, 45, 11, 14, 48, 0)
s = 111: (0, 31, 8, 33, 40, 5, 22, 36, 11, 19, 31, 0)
s = 112: (0, 35, 5, 47, 26, 6, 32, 22, 15, 22, 53, 0)
s = 113: (0, 37, 6, 28, 65, 5, 53, 25, 10, 21, 45, 0)
s = 114: (0, 35, 6, 44, 43, 9, 38, 40, 15, 15, 88, 0)
s = 115: (0, 43, 6, 50, 32, 5, 29, 28, 9, 22, 52, 0)
s = 116: (0, 49, 7, 54, 48, 7, 34, 15, 8, 36, 52, 0)
s = 117: (0, 43, 4, 55, 66, 8, 32, 26, 19, 23, 41, 0)
s = 118: (0, 27, 7, 26, 51, 7, 47, 19, 12, 14, 33, 0)
s = 119: (0, 39, 5, 46, 34, 5, 45, 21, 12, 15, 57, 0)
s = 120: (0, 32, 5, 26, 35, 4, 30, 27, 20, 16, 62, 0)
s = 121: (0, 56, 4, 42, 50, 6, 57, 37, 16, 23, 92, 0)
s = 122: (0, 81, 9, 41, 41, 8, 44, 32, 8, 12, 65, 0)
s = 123: (0, 66, 5, 35, 34, 5, 42, 44, 15, 27, 49, 0)
s = 124: (0, 46, 7, 31, 36, 5, 33, 22, 15, 18, 61, 0)
s = 125: (0, 43, 8, 34, 34, 7, 34, 19, 9, 25, 84, 0)
s = 126: (0, 39, 5, 62, 37, 5, 36, 34, 9, 16, 62, 0)
s = 127: (0, 49, 5, 32, 30, 8, 32, 25, 10, 23, 51, 0)
s = 128: (0, 40, 6, 52, 39, 7, 37, 30, 13, 15, 29, 0)
s = 129: (0, 55, 4, 42, 37, 4, 42, 25, 13, 20, 48, 0)
s = 130: (0, 42, 10, 35, 54, 5, 60, 21, 13, 14, 61, 0)
s = 131: (0, 58, 9, 26, 50, 7, 36, 29, 15, 24, 39, 0)
s = 132: (0, 57, 6, 33, 61, 7, 35, 25, 16, 17, 48, 0)
s = 133: (0, 36, 6, 27, 38, 8, 33, 31, 16, 14, 41, 0)
s = 134: (0, 36, 5, 46, 37, 5, 60, 24, 9, 17, 42, 0)
s = 135: (0, 57, 7, 28, 65, 6, 34, 34, 15, 20, 43, 0)
s = 136: (0, 27, 11, 66, 27, 5, 38, 29, 14, 18, 67, 0)
s = 137: (0, 60, 6, 29, 54, 4, 32, 23, 9, 13, 29, 0)
s = 138: (0, 40, 7, 31, 34, 6, 28, 18, 14, 16, 38, 0)
s = 139: (0, 47, 7, 24, 43, 5, 41, 21, 13, 25, 33, 0)
s = 140: (0, 43, 6, 43, 52, 5, 36, 17, 12, 15, 31, 0)
s = 141: (0, 41, 10, 34, 31, 5, 40, 19, 8, 17, 79, 0)
s = 142: (0, 42, 8, 44, 43, 5, 46, 24, 7, 18, 60, 0)
s = 143: (0, 37, 11, 39, 49, 6, 29, 26, 12, 26, 45, 0)
s = 144: (0, 65, 7, 25, 43, 5, 56, 28, 18, 24, 50, 0)
s = 145: (0, 53, 5, 36, 28, 9, 55, 29, 13, 20, 39, 0)
s = 146: (0, 36, 5, 35, 37, 4, 34, 20, 14, 19, 45, 0)
s = 147: (0, 34, 5, 27, 53, 3, 33, 36, 11, 26, 50, 0)
s = 148: (0, 51, 5, 41, 30, 4, 31, 30, 13, 23, 42, 0)
s = 149: (0, 26, 7, 46, 42, 7, 33, 28, 8, 19, 50, 0)
s = 150: (0, 45, 8, 51, 32, 6, 29, 19, 18, 18, 71, 0)
s = 151: (0, 48, 6, 35, 41, 4, 32, 32, 18, 22, 51, 0)
s = 152: (0, 42, 6, 35, 29, 7, 30, 31, 13, 17, 36, 0)
s = 153: (0, 65, 5, 40, 38, 6, 31, 41, 15, 16, 67, 0)
s = 154: (0, 38, 6, 42, 44, 6, 41, 32, 16, 22, 53, 0)
s = 155: (0, 40, 5, 60, 27, 5, 38, 30, 13, 29, 34, 0)
s = 156: (0, 30, 6, 40, 40, 4, 22, 23, 7, 34, 59, 0)
s = 157: (0, 45, 7, 44, 30, 4, 44, 30, 15, 15, 39, 0)
s = 158: (0, 45, 5, 37, 43, 7, 30, 27, 17, 13, 43, 0)
s = 159: (0, 59, 5, 39, 54, 4, 40, 42, 7, 29, 79, 0)
s = 160: (0, 52, 5, 32, 28, 8, 38, 30, 19, 22, 52, 0)
s = 161: (0, 61, 4, 49, 70, 5, 27, 20, 9, 20, 48, 0)
s = 162: (0, 53, 5, 51, 30, 6, 29, 35, 13, 19, 32, 0)
s = 163: (0, 33, 6, 35, 26, 5, 37, 39, 11, 16, 36, 0)
s = 164: (0, 40, 8, 53, 39, 5, 24, 25, 13, 18, 54, 0)
s = 165: (0, 46, 5, 42, 46, 7, 45, 22, 10, 24, 70, 0)
s = 166: (0, 51, 7, 26, 25, 6, 50, 26, 11, 24, 36, 0)
s = 167: (0, 43, 8, 60, 55, 7, 51, 26, 9, 16, 64, 0)
s = 168: (0, 43, 7, 33, 30, 5, 74, 26, 17, 24, 49, 0)
s = 169: (0, 54, 4, 40, 32, 4, 27, 26, 16, 12, 64, 0)
s = 170: (0, 35, 4, 48, 28, 6, 31, 45, 18, 13, 37, 0)
s = 171: (0, 58, 9, 29, 34, 4, 34, 24, 15, 28, 32, 0)
s = 172: (0, 40, 8, 29, 30, 7, 39, 30, 18, 14, 63, 0)
s = 173: (0, 50, 5, 41, 65, 5, 24, 28, 11, 18, 61, 0)
s = 174: (0, 29, 6, 28, 34, 5, 43, 25, 19, 23, 36, 0)
s = 175: (0, 27, 9, 41, 35, 4, 42, 36, 14, 19, 31, 0)
s = 176: (0, 32, 8, 31, 38, 6, 22, 20, 13, 19, 28, 0)
s = 177: (0, 58, 7, 33, 39, 6, 26, 33, 9, 25, 32, 0)
s = 178: (0, 47, 7, 59, 58, 6, 59, 24, 8, 23, 51, 0)
s = 179: (0, 46, 7, 36, 33, 6, 59, 28, 16, 22, 75, 0)
s = 180: (0, 58, 10, 27, 32, 5, 52, 20, 12, 16, 42, 0)
s = 181: (0, 91, 9, 53, 26, 5, 32, 18, 13, 22, 26, 0)
s = 182: (0, 49, 8, 41, 32, 5, 44, 24, 14, 16, 29, 0)
s = 183: (0, 39, 7, 33, 48, 4, 22, 28, 13, 29, 38, 0)
s = 184: (0, 49, 5, 39, 34, 4, 36, 26, 11, 15, 86, 0)
s = 185: (0, 58, 8, 40, 42, 7, 30, 26, 14, 19, 37, 0)
s = 186: (0, 32, 4, 30, 49, 4, 22, 22, 16, 14, 35, 0)
s = 187: (0, 59, 7, 48, 39, 6, 44, 25, 7, 23, 58, 0)
s = 188: (0, 42, 6, 28, 42, 4, 51, 26, 7, 15, 36, 0)
s = 189: (0, 35, 6, 25, 28, 6, 37, 36, 17, 28, 79, 0)
s = 190: (0, 42, 6, 71, 30, 6, 50, 35, 9, 21, 31, 0)
s = 191: (0, 28, 6, 41, 24, 5, 43, 32, 9, 26, 69, 0)
s = 192: (0, 42, 5, 32, 35, 3, 45, 28, 16, 21, 91, 0)
s = 193: (0, 31, 5, 39, 44, 8, 59, 29, 11, 16, 40, 0)
s = 194: (0, 53, 6, 48, 30, 5, 45, 33, 9, 24, 30, 0)
s = 195: (0, 56, 9, 39, 50, 7, 50, 22, 21, 15, 30, 0)
s = 196: (0, 40, 6, 41, 25, 5, 38, 24, 16, 25, 33, 0)
s = 197: (0, 55, 4, 68, 28, 4, 51, 30, 10, 21, 56, 0)
s = 198: (0, 50, 8, 42, 33, 4, 26, 23, 15, 16, 36, 0)
s = 199: (0, 55, 8, 23, 25, 8, 25, 21, 10, 14, 48, 0)
s = 200: (0, 35, 10, 33, 37, 7, 48, 37, 11, 23, 65, 0)
------------------------------------------------------------------------
RESOURCE k = 2
s = 1: (0, 43, 19, 54, 86, 2, 27, 38, 23, 29, 15, 0)
s = 2: (0, 27, 16, 40, 57, 3, 43, 59, 37, 32, 22, 0)
s = 3: (0, 27, 17, 77, 51, 2, 53, 35, 21, 29, 15, 0)
s = 4: (0, 27, 15, 38, 50, 2, 43, 53, 30, 28, 12, 0)
s = 5: (0, 23, 10, 48, 30, 3, 31, 26, 19, 25, 18, 0)
s = 6: (0, 30, 15, 37, 48, 4, 35, 30, 21, 19, 11, 0)
s = 7: (0, 56, 14, 42, 40, 3, 25, 45, 28, 26, 13, 0)
s = 8: (0, 24, 18, 75, 39, 2, 63, 36, 25, 32, 13, 0)
s = 9: (0, 26, 11, 34, 48, 4, 24, 42, 23, 19, 14, 0)
s = 10: (0, 40, 12, 36, 56, 2, 57, 51, 33, 17, 20, 0)
s = 11: (0, 26, 11, 39, 41, 3, 38, 25, 22, 26, 15, 0)
s = 12: (0, 33, 11, 42, 35, 3, 42, 38, 35, 20, 10, 0)
s = 13: (0, 54, 12, 56, 38, 3, 40, 21, 25, 19, 8, 0)
s = 14: (0, 32, 13, 45, 50, 2, 39, 21, 28, 17, 11, 0)
s = 15: (0, 34, 10, 101, 37, 2, 48, 20, 33, 35, 12, 0)
s = 16: (0, 35, 18, 48, 35, 3, 35, 38, 29, 14, 13, 0)
s = 17: (0, 33, 14, 35, 65, 2, 46, 30, 31, 26, 15, 0)
s = 18: (0, 32, 13, 63, 55, 2, 28, 23, 23, 34, 13, 0)
s = 19: (0, 43, 11, 47, 38, 3, 47, 35, 17, 32, 12, 0)
s = 20: (0, 47, 11, 50, 54, 2, 56, 25, 26, 16, 21, 0)
s = 21: (0, 36, 10, 60, 58, 2, 27, 34, 36, 25, 13, 0)
s = 22: (0, 40, 20, 45, 49, 3, 49, 27, 17, 28, 20, 0)
s = 23: (0, 29, 13, 61, 41, 2, 34, 58, 25, 29, 15, 0)
s = 24: (0, 36, 22, 38, 87, 3, 47, 33, 25, 27, 15, 0)
s = 25: (0, 42, 10, 66, 44, 3, 36, 52, 16, 19, 16, 0)
s = 26: (0, 29, 14, 72, 40, 2, 29, 45, 24, 16, 12, 0)
s = 27: (0, 33, 19, 40, 32, 3, 50, 27, 22, 25, 14, 0)
s = 28: (0, 30, 14, 46, 40, 2, 53, 28, 48, 37, 12, 0)
s = 29: (0, 37, 12, 59, 47, 3, 34, 46, 18, 22, 14, 0)
s = 30: (0, 28, 16, 57, 53, 3, 31, 24, 24, 30, 16, 0)
s = 31: (0, 34, 21, 40, 53, 2, 48, 28, 24, 28, 11, 0)
s = 32: (0, 42, 18, 58, 41, 3, 42, 43, 24, 35, 16, 0)
s = 33: (0, 53, 10, 69, 44, 2, 29, 23, 20, 39, 16, 0)
s = 34: (0, 41, 11, 45, 54, 2, 57, 27, 14, 35, 13, 0)
s = 35: (0, 32, 9, 62, 51, 2, 25, 22, 13, 27, 16, 0)
s = 36: (0, 36, 9, 63, 44, 4, 48, 40, 41, 20, 18, 0)
s = 37: (0, 40, 20, 59, 46, 2, 56, 26, 18, 27, 15, 0)
s = 38: (0, 55, 12, 34, 65, 3, 26, 26, 14, 19, 21, 0)
s = 39: (0, 35, 15, 36, 52, 2, 38, 31, 25, 45, 11, 0)
s = 40: (0, 27, 10, 54, 58, 3, 39, 28, 23, 17, 12, 0)
s = 41: (0, 37, 18, 44, 50, 3, 58, 33, 25, 21, 15, 0)
s = 42: (0, 30, 23, 74, 37, 3, 32, 41, 15, 24, 11, 0)
s = 43: (0, 26, 15, 67, 51, 2, 41, 44, 29, 30, 14, 0)
s = 44: (0, 26, 17, 63, 80, 2, 45, 35, 26, 29, 12, 0)
s = 45: (0, 32, 11, 36, 33, 2, 53, 26, 14, 29, 18, 0)
s = 46: (0, 28, 14, 64, 67, 3, 35, 38, 20, 24, 12, 0)
s = 47: (0, 31, 12, 46, 48, 3, 45, 44, 25, 24, 11, 0)
s = 48: (0, 44, 12, 43, 73, 3, 37, 38, 18, 25, 15, 0)
s = 49: (0, 22, 25, 47, 35, 2, 64, 29, 33, 25, 18, 0)
s = 50: (0, 28, 12, 49, 67, 2, 34, 25, 29, 22, 17, 0)
s = 51: (0, 33, 23, 37, 35, 4, 49, 39, 20, 21, 19, 0)
s = 52: (0, 27, 14, 39, 84, 3, 52, 21, 20, 35, 10, 0)
s = 53: (0, 32, 10, 63, 63, 4, 46, 43, 22, 19, 15, 0)
s = 54: (0, 41, 9, 49, 46, 3, 41, 36, 25, 17, 13, 0)
s = 55: (0, 28, 16, 65, 35, 3, 41, 34, 14, 25, 17, 0)
s = 56: (0, 22, 24, 63, 47, 2, 33, 31, 18, 32, 17, 0)
s = 57: (0, 41, 12, 31, 48, 3, 29, 26, 24, 29, 11, 0)
s = 58: (0, 26, 9, 45, 35, 2, 43, 50, 16, 19, 16, 0)
s = 59: (0, 29, 9, 47, 74, 3, 33, 20, 23, 15, 16, 0)
s = 60: (0, 38, 13, 70, 52, 2, 46, 33, 33, 24, 25, 0)
s = 61: (0, 56, 16, 81, 38, 3, 43, 27, 22, 24, 13, 0)
s = 62: (0, 23, 15, 54, 46, 2, 25, 18, 18, 34, 12, 0)
s = 63: (0, 35, 12, 67, 63, 2, 46, 24, 18, 16, 13, 0)
s = 64: (0, 26, 16, 63, 73, 3, 50, 30, 14, 28, 13, 0)
s = 65: (0, 47, 9, 42, 79, 2, 28, 22, 26, 28, 16, 0)
s = 66: (0, 24, 23, 90, 85, 2, 45, 32, 23, 38, 15, 0)
s = 67: (0, 38, 14, 48, 41, 2, 30, 43, 21, 34, 14, 0)
s = 68: (0, 51, 16, 48, 55, 3, 49, 31, 23, 24, 13, 0)
s = 69: (0, 51, 10, 60, 39, 4, 58, 18, 26, 27, 19, 0)
s = 70: (0, 30, 10, 74, 37, 2, 25, 19, 19, 37, 15, 0)
s = 71: (0, 37, 11, 64, 43, 2, 35, 41, 18, 21, 11, 0)
s = 72: (0, 52, 14, 57, 32, 2, 24, 24, 26, 17, 23, 0)
s = 73: (0, 20, 19, 74, 56, 3, 57, 30, 20, 35, 14, 0)
s = 74: (0, 39, 20, 84, 63, 2, 33, 26, 31, 21, 16, 0)
s = 75: (0, 32, 12, 67, 41, 2, 73, 29, 25, 29, 17, 0)
s = 76: (0, 31, 15, 45, 74, 2, 45, 38, 32, 33, 13, 0)
s = 77: (0, 25, 11, 80, 66, 2, 35, 32, 19, 34, 19, 0)
s = 78: (0, 30, 10, 73, 50, 2, 36, 23, 18, 17, 15, 0)
s = 79: (0, 42, 9, 40, 81, 2, 64, 21, 24, 39, 13, 0)
s = 80: (0, 53, 14, 42, 47, 2, 32, 40, 23, 22, 11, 0)
s = 81: (0, 42, 9, 38, 53, 2, 62, 55, 23, 45, 14, 0)
s = 82: (0, 42, 15, 44, 44, 3, 30, 23, 28, 20, 11, 0)
s = 83: (0, 43, 21, 35, 50, 2, 43, 22, 20, 21, 14, 0)
s = 84: (0, 23, 14, 61, 44, 2, 35, 34, 23, 24, 18, 0)
s = 85: (0, 24, 12, 73, 60, 3, 54, 26, 26, 17, 14, 0)
s = 86: (0, 19, 15, 42, 41, 2, 47, 21, 20, 26, 17, 0)
s = 87: (0, 29, 22, 57, 61, 2, 29, 21, 25, 33, 13, 0)
s = 88: (0, 47, 11, 36, 33, 2, 64, 30, 19, 14, 11, 0)
s = 89: (0, 26, 15, 47, 55, 3, 28, 34, 37, 27, 16, 0)
s = 90: (0, 25, 20, 54, 33, 2, 33, 43, 21, 14, 16, 0)
s = 91: (0, 28, 15, 36, 37, 3, 45, 43, 27, 36, 12, 0)
s = 92: (0, 38, 12, 89, 68, 2, 43, 32, 21, 22, 9, 0)
s = 93: (0, 32, 16, 54, 55, 2, 58, 42, 26, 17, 15, 0)
s = 94: (0, 36, 19, 50, 38, 2, 48, 33, 17, 22, 14, 0)
s = 95: (0, 25, 16, 82, 71, 2, 24, 31, 30, 20, 14, 0)
s = 96: (0, 40, 12, 69, 44, 2, 55, 19, 27, 26, 11, 0)
s = 97: (0, 41, 12, 31, 47, 2, 36, 33, 22, 25, 8, 0)
s = 98: (0, 38, 11, 59, 83, 2, 33, 40, 18, 23, 18, 0)
s = 99: (0, 34, 12, 48, 60, 2, 26, 37, 17, 29, 11, 0)
s = 100: (0, 42, 11, 46, 64, 2, 42, 52, 22, 24, 13, 0)
s = 101: (0, 31, 14, 80, 70, 2, 34, 31, 30, 21, 14, 0)
s = 102: (0, 25, 12, 58, 56, 2, 36, 23, 19, 32, 15, 0)
s = 103: (0, 26, 13, 61, 62, 3, 36, 39, 24, 30, 21, 0)
s = 104: (0, 31, 14, 50, 52, 2, 34, 29, 30, 24, 16, 0)
s = 105: (0, 25, 21, 70, 64, 2, 28, 30, 18, 22, 20, 0)
s = 106: (0, 23, 11, 75, 84, 3, 50, 21, 22, 17, 14, 0)
s = 107: (0, 42, 14, 56, 58, 2, 33, 24, 22, 29, 20, 0)
s = 108: (0, 55, 15, 50, 55, 3, 47, 20, 24, 25, 18, 0)
s = 109: (0, 33, 19, 53, 34, 3, 36, 24, 25, 22, 11, 0)
s = 110: (0, 24, 15, 39, 69, 2, 36, 52, 22, 17, 14, 0)
s = 111: (0, 25, 17, 43, 51, 2, 22, 41, 22, 23, 9, 0)
s = 112: (0, 28, 10, 62, 33, 3, 32, 25, 30, 27, 15, 0)
s = 113: (0, 30, 12, 37, 83, 2, 53, 29, 19, 25, 13, 0)
s = 114: (0, 28, 13, 58, 56, 4, 38, 46, 29, 18, 26, 0)
s = 115: (0, 34, 14, 66, 41, 2, 29, 31, 18, 27, 15, 0)
s = 116: (0, 39, 17, 72, 61, 3, 34, 17, 15, 43, 15, 0)
s = 117: (0, 34, 8, 73, 84, 4, 32, 30, 38, 28, 12, 0)
s = 118: (0, 22, 15, 34, 66, 3, 47, 21, 24, 16, 10, 0)
s = 119: (0, 32, 10, 62, 43, 2, 45, 23, 23, 18, 17, 0)
s = 120: (0, 26, 12, 35, 45, 2, 30, 31, 39, 19, 18, 0)
s = 121: (0, 45, 9, 55, 64, 3, 57, 42, 32, 28, 27, 0)
s = 122: (0, 65, 20, 55, 53, 3, 44, 36, 15, 14, 19, 0)
s = 123: (0, 53, 11, 46, 43, 2, 42, 50, 30, 32, 14, 0)
s = 124: (0, 37, 15, 41, 46, 2, 33, 26, 29, 21, 18, 0)
s = 125: (0, 35, 19, 45, 44, 3, 34, 22, 17, 30, 24, 0)
s = 126: (0, 31, 12, 83, 47, 2, 36, 39, 17, 19, 18, 0)
s = 127: (0, 39, 10, 42, 38, 3, 32, 28, 20, 27, 15, 0)
s = 128: (0, 32, 13, 69, 49, 3, 37, 34, 25, 18, 9, 0)
s = 129: (0, 44, 9, 56, 48, 2, 42, 29, 25, 24, 14, 0)
s = 130: (0, 34, 23, 46, 69, 2, 60, 24, 26, 17, 18, 0)
s = 131: (0, 47, 20, 34, 65, 3, 36, 33, 30, 28, 11, 0)
s = 132: (0, 46, 13, 43, 79, 3, 35, 28, 32, 20, 14, 0)
s = 133: (0, 29, 14, 36, 49, 4, 33, 35, 31, 16, 12, 0)
s = 134: (0, 29, 12, 62, 48, 2, 60, 27, 17, 20, 12, 0)
s = 135: (0, 46, 17, 37, 83, 3, 34, 39, 29, 24, 13, 0)
s = 136: (0, 21, 25, 88, 35, 2, 38, 33, 28, 21, 19, 0)
s = 137: (0, 48, 13, 38, 70, 2, 32, 27, 17, 15, 9, 0)
s = 138: (0, 32, 17, 41, 43, 3, 28, 20, 27, 19, 11, 0)
s = 139: (0, 38, 16, 32, 56, 2, 41, 24, 26, 30, 10, 0)
s = 140: (0, 35, 14, 57, 67, 2, 36, 20, 23, 18, 9, 0)
s = 141: (0, 33, 22, 45, 40, 2, 40, 22, 15, 21, 23, 0)
s = 142: (0, 34, 19, 58, 56, 2, 46, 27, 13, 21, 18, 0)
s = 143: (0, 30, 25, 51, 63, 3, 29, 30, 23, 31, 13, 0)
s = 144: (0, 52, 15, 33, 55, 2, 56, 32, 36, 28, 15, 0)
s = 145: (0, 43, 10, 47, 36, 4, 55, 33, 26, 24, 11, 0)
s = 146: (0, 29, 11, 46, 47, 2, 34, 23, 27, 23, 13, 0)
s = 147: (0, 27, 12, 36, 67, 2, 33, 41, 22, 31, 15, 0)
s = 148: (0, 41, 12, 55, 38, 2, 31, 35, 26, 28, 12, 0)
s = 149: (0, 21, 17, 62, 54, 3, 33, 32, 15, 23, 15, 0)
s = 150: (0, 36, 17, 67, 41, 3, 29, 22, 35, 21, 21, 0)
s = 151: (0, 38, 14, 46, 52, 2, 32, 37, 35, 26, 15, 0)
s = 152: (0, 34, 12, 47, 38, 3, 30, 35, 26, 20, 11, 0)
s = 153: (0, 52, 12, 54, 49, 3, 31, 47, 30, 19, 20, 0)
s = 154: (0, 31, 13, 56, 56, 3, 41, 36, 31, 27, 16, 0)
s = 155: (0, 32, 11, 79, 34, 2, 38, 34, 26, 35, 10, 0)
s = 156: (0, 24, 12, 54, 51, 2, 22, 26, 14, 41, 17, 0)
s = 157: (0, 36, 16, 59, 38, 2, 44, 34, 30, 18, 11, 0)
s = 158: (0, 36, 10, 49, 55, 3, 30, 31, 33, 16, 13, 0)
s = 159: (0, 47, 11, 52, 69, 2, 40, 47, 14, 35, 23, 0)
s = 160: (0, 41, 12, 43, 35, 4, 38, 35, 37, 26, 15, 0)
s = 161: (0, 49, 9, 65, 90, 2, 27, 23, 18, 24, 14, 0)
s = 162: (0, 42, 10, 68, 38, 3, 29, 40, 25, 22, 10, 0)
s = 163: (0, 26, 14, 47, 33, 2, 37, 44, 21, 20, 11, 0)
s = 164: (0, 32, 19, 70, 50, 2, 24, 29, 26, 21, 16, 0)
s = 165: (0, 37, 10, 56, 59, 3, 45, 25, 19, 28, 20, 0)
s = 166: (0, 41, 17, 35, 32, 3, 50, 29, 21, 29, 11, 0)
s = 167: (0, 35, 17, 79, 70, 3, 51, 30, 17, 20, 19, 0)
s = 168: (0, 35, 16, 43, 38, 2, 74, 30, 34, 28, 14, 0)
s = 169: (0, 43, 9, 53, 41, 2, 27, 30, 32, 15, 19, 0)
s = 170: (0, 28, 9, 63, 36, 3, 31, 51, 36, 15, 11, 0)
s = 171: (0, 46, 19, 39, 44, 2, 34, 28, 29, 33, 10, 0)
s = 172: (0, 32, 17, 39, 38, 3, 39, 34, 36, 17, 18, 0)
s = 173: (0, 40, 10, 55, 83, 2, 24, 32, 21, 22, 18, 0)
s = 174: (0, 23, 12, 38, 43, 2, 43, 29, 37, 27, 11, 0)
s = 175: (0, 22, 20, 55, 45, 2, 42, 41, 28, 23, 9, 0)
s = 176: (0, 25, 18, 41, 49, 3, 22, 22, 25, 23, 8, 0)
s = 177: (0, 46, 15, 43, 50, 3, 26, 38, 17, 29, 10, 0)
s = 178: (0, 37, 15, 79, 74, 3, 59, 27, 16, 27, 15, 0)
s = 179: (0, 37, 17, 47, 42, 3, 59, 32, 32, 27, 22, 0)
s = 180: (0, 47, 22, 35, 41, 2, 52, 23, 23, 19, 12, 0)
s = 181: (0, 73, 20, 71, 33, 2, 32, 21, 26, 26, 8, 0)
s = 182: (0, 40, 19, 54, 41, 2, 44, 27, 28, 19, 9, 0)
s = 183: (0, 32, 16, 43, 62, 2, 22, 32, 26, 34, 11, 0)
s = 184: (0, 39, 12, 52, 43, 2, 36, 30, 22, 18, 25, 0)
s = 185: (0, 47, 17, 54, 53, 3, 30, 30, 27, 23, 11, 0)
s = 186: (0, 26, 9, 40, 63, 2, 22, 25, 31, 17, 10, 0)
s = 187: (0, 47, 16, 64, 49, 3, 44, 28, 14, 28, 17, 0)
s = 188: (0, 33, 12, 37, 53, 2, 51, 30, 13, 17, 11, 0)
s = 189: (0, 28, 13, 33, 36, 3, 37, 42, 33, 34, 23, 0)
s = 190: (0, 34, 14, 95, 38, 3, 50, 40, 17, 26, 9, 0)
s = 191: (0, 23, 14, 54, 30, 2, 43, 36, 18, 32, 20, 0)
s = 192: (0, 34, 11, 42, 44, 2, 45, 32, 32, 25, 26, 0)
s = 193: (0, 25, 11, 51, 56, 3, 59, 33, 21, 19, 12, 0)
s = 194: (0, 43, 13, 64, 38, 2, 45, 37, 18, 29, 9, 0)
s = 195: (0, 45, 19, 52, 64, 3, 50, 25, 41, 18, 9, 0)
s = 196: (0, 32, 13, 55, 32, 2, 38, 28, 32, 30, 10, 0)
s = 197: (0, 44, 8, 91, 36, 2, 51, 34, 19, 25, 16, 0)
s = 198: (0, 40, 18, 56, 42, 2, 26, 26, 30, 20, 11, 0)
s = 199: (0, 44, 19, 31, 32, 3, 25, 24, 20, 17, 14, 0)
s = 200: (0, 28, 23, 44, 47, 3, 48, 42, 22, 28, 19, 0)
************************************************************************
ES/LS-VALUES:
jobnr.   ES(i)    LS(i)
------------------------------------------------------------------------
  0        0        0
  1        0       36
  2        0       51
  3        0       58
  4       18       55
  5        3       61
  6       18       55
  7       25       63
  8       18       73
  9       32       71
 10       28       65
 11       41       79
************************************************************************
BIG-M-VALUES:
M1 = 68, M2 = 177
************************************************************************
